c seed= 1850040761
p cnf 8 32
-8 3 -6 0
5 1 -4 0
-7 -2 4 0
-8 -5 7 0
1 -3 -2 0
3 -8 4 0
8 -3 7 0
-1 8 -2 0
-8 6 -7 0
7 -4 -8 0
2 4 -1 0
2 -1 -3 0
-2 3 -7 0
4 -2 -3 0
3 -6 -8 0
2 -4 3 0
-2 6 5 0
-5 -8 6 0
7 -5 4 0
-4 1 5 0
5 6 -2 0
1 5 7 0
-8 5 6 0
-8 3 7 0
7 6 -2 0
8 3 -1 0
5 -3 -8 0
-7 -8 -2 0
8 -6 -4 0
-3 7 5 0
6 -4 -7 0
-7 1 5 0
